p cnf 729 81
-1 0
10 0
-19 0
-28 0
-37 0
-46 0
56 0
-64 0
-73 0
-82 0
-91 0
105 0
-109 0
125 0
-127 0
-136 0
-145 0
-154 0
-163 0
-172 0
-181 0
-190 0
-199 0
216 0
-217 0
229 0
-235 0
-244 0
-253 0
-262 0
-271 0
-280 0
-289 0
-298 0
315 0
318 0
-325 0
-334 0
-343 0
-352 0
-361 0
-370 0
-379 0
-388 0
-397 0
-406 0
420 0
-424 0
433 0
443 0
-451 0
-460 0
-469 0
-478 0
-487 0
-496 0
-505 0
-514 0
-523 0
-532 0
541 0
-550 0
-559 0
571 0
-577 0
594 0
-595 0
-604 0
618 0
628 0
-631 0
-640 0
-649 0
-658 0
669 0
-676 0
-685 0
-694 0
-703 0
-712 0
-721 0
